Minimize
  - 12 y_0 - 7 y_1 - 13 y_2 - 11 y_3 - 9 y_4 - 8 y_5 - 13 y_6 - 13 y_7
   - 11 y_8 - 10 y_10 - 16 y_11 - 10 y_12 - 9 y_13 - 12 y_14 - 10 y_15
   - 8 y_16 - 7 y_17 - 10 y_18 - 11 y_19 + 67 x_0_1 + 87 x_0_2 + 52 x_0_3
   + 74 x_0_4 + 71 x_0_5 + 37 x_0_6 + 43 x_0_7 + 12 x_0_8 + 20 x_0_10
   + 62 x_0_12 + 55 x_0_13 + 31 x_0_14 + 79 x_0_15 + 64 x_0_17 + 87 x_0_18
   + 45 x_0_19 + 70 x_1_2 + 7 x_1_4 + 4 x_1_5 + 58 x_1_8 + 30 x_1_9
   + 51 x_1_10 + 47 x_1_11 + 67 x_1_12 + 67 x_1_13 + 77 x_1_14 + 12 x_1_15
   + 59 x_1_16 + 4 x_1_17 + 31 x_1_18 + 75 x_1_19 + 94 x_2_3 + 74 x_2_4
   + 70 x_2_5 + 66 x_2_6 + 50 x_2_9 + 112 x_2_11 + 69 x_2_14 + 74 x_2_15
   + 56 x_2_16 + 67 x_2_17 + 52 x_2_18 + 16 x_3_7 + 41 x_3_8 + 32 x_3_10
   + 19 x_3_11 + 75 x_3_14 + 41 x_3_15 + 61 x_3_16 + 33 x_3_17 + 79 x_3_19
   + 4 x_4_5 + 87 x_4_6 + 51 x_4_7 + 64 x_4_8 + 37 x_4_9 + 58 x_4_10
   + 85 x_4_14 + 6 x_4_15 + 66 x_4_16 + 50 x_5_7 + 61 x_5_8 + 32 x_5_9
   + 49 x_5_11 + 69 x_5_12 + 69 x_5_13 + 81 x_5_14 + 62 x_5_16 + 7 x_5_17
   + 28 x_5_18 + 74 x_6_7 + 45 x_6_8 + 51 x_6_10 + 6 x_6_14 + 91 x_6_15
   + 76 x_6_17 + 87 x_6_18 + 31 x_7_8 + 51 x_7_9 + 23 x_7_10 + 23 x_7_11
   + 85 x_7_12 + 69 x_7_14 + 57 x_7_15 + 46 x_7_17 + 43 x_8_9 + 54 x_8_11
   + 64 x_8_12 + 58 x_8_13 + 40 x_8_14 + 70 x_8_15 + 55 x_8_17 + 80 x_8_18
   + 63 x_9_11 + 39 x_9_12 + 50 x_9_14 + 40 x_9_15 + 30 x_9_16 + 26 x_9_17
   + 40 x_9_18 + 45 x_9_19 + 46 x_10_11 + 61 x_10_13 + 46 x_10_14
   + 39 x_10_16 + 56 x_10_19 + 101 x_11_12 + 97 x_11_13 + 91 x_11_14
   + 52 x_11_15 + 79 x_11_16 + 75 x_12_15 + 30 x_12_16 + 64 x_12_17
   + 62 x_12_18 + 33 x_13_14 + 76 x_13_15 + 23 x_13_16 + 63 x_13_17
   + 65 x_13_18 + 17 x_13_19 + 20 x_14_16 + 87 x_14_18 + 17 x_14_19
   + 70 x_15_16 + 15 x_15_17 + 85 x_15_19 + 55 x_16_17 + 68 x_16_18
   + 18 x_16_19 + 30 x_17_18 + 71 x_17_19 + 79 x_18_19 + 200 Constant
Subject To
 c_0: y_9 = 1
 c_1_0: y_0 >= 1
 c_1_1: y_1 + y_4 + y_5 + y_17 >= 1
 c_1_2: y_2 >= 1
 c_1_3: y_3 >= 1
 c_1_4: y_1 + y_4 + y_5 + y_15 >= 1
 c_1_5: y_1 + y_4 + y_5 + y_15 + y_17 >= 1
 c_1_6: y_6 + y_14 >= 1
 c_1_7: y_7 >= 1
 c_1_8: y_8 + y_10 >= 1
 c_1_9: y_9 >= 1
 c_1_10: y_8 + y_10 >= 1
 c_1_11: y_11 >= 1
 c_1_12: y_12 + y_13 >= 1
 c_1_13: y_12 + y_13 >= 1
 c_1_14: y_6 + y_14 >= 1
 c_1_15: y_4 + y_5 + y_15 >= 1
 c_1_16: y_16 >= 1
 c_1_17: y_1 + y_5 + y_17 >= 1
 c_1_18: y_18 >= 1
 c_1_19: y_19 >= 1
 c_2_0: - 2 y_0 + x_0_1 + x_0_2 + x_0_3 + x_0_4 + x_0_5 + x_0_6 + x_0_7
   + x_0_8 + x_0_10 + x_0_12 + x_0_13 + x_0_14 + x_0_15 + x_0_17 + x_0_18
   + x_0_19 = 0
 c_2_1: - 2 y_1 + x_0_1 + x_1_2 + x_1_4 + x_1_5 + x_1_8 + x_1_9 + x_1_10
   + x_1_11 + x_1_12 + x_1_13 + x_1_14 + x_1_15 + x_1_16 + x_1_17 + x_1_18
   + x_1_19 = 0
 c_2_2: - 2 y_2 + x_0_2 + x_1_2 + x_2_3 + x_2_4 + x_2_5 + x_2_6 + x_2_9
   + x_2_11 + x_2_14 + x_2_15 + x_2_16 + x_2_17 + x_2_18 = 0
 c_2_3: - 2 y_3 + x_0_3 + x_2_3 + x_3_7 + x_3_8 + x_3_10 + x_3_11 + x_3_14
   + x_3_15 + x_3_16 + x_3_17 + x_3_19 = 0
 c_2_4: - 2 y_4 + x_0_4 + x_1_4 + x_2_4 + x_4_5 + x_4_6 + x_4_7 + x_4_8
   + x_4_9 + x_4_10 + x_4_14 + x_4_15 + x_4_16 = 0
 c_2_5: - 2 y_5 + x_0_5 + x_1_5 + x_2_5 + x_4_5 + x_5_7 + x_5_8 + x_5_9
   + x_5_11 + x_5_12 + x_5_13 + x_5_14 + x_5_16 + x_5_17 + x_5_18 = 0
 c_2_6: - 2 y_6 + x_0_6 + x_2_6 + x_4_6 + x_6_7 + x_6_8 + x_6_10 + x_6_14
   + x_6_15 + x_6_17 + x_6_18 = 0
 c_2_7: - 2 y_7 + x_0_7 + x_3_7 + x_4_7 + x_5_7 + x_6_7 + x_7_8 + x_7_9
   + x_7_10 + x_7_11 + x_7_12 + x_7_14 + x_7_15 + x_7_17 = 0
 c_2_8: - 2 y_8 + x_0_8 + x_1_8 + x_3_8 + x_4_8 + x_5_8 + x_6_8 + x_7_8
   + x_8_9 + x_8_11 + x_8_12 + x_8_13 + x_8_14 + x_8_15 + x_8_17 + x_8_18
   = 0
 c_2_9: - 2 y_9 + x_1_9 + x_2_9 + x_4_9 + x_5_9 + x_7_9 + x_8_9 + x_9_11
   + x_9_12 + x_9_14 + x_9_15 + x_9_16 + x_9_17 + x_9_18 + x_9_19 = 0
 c_2_10: - 2 y_10 + x_0_10 + x_1_10 + x_3_10 + x_4_10 + x_6_10 + x_7_10
   + x_10_11 + x_10_13 + x_10_14 + x_10_16 + x_10_19 = 0
 c_2_11: - 2 y_11 + x_1_11 + x_2_11 + x_3_11 + x_5_11 + x_7_11 + x_8_11
   + x_9_11 + x_10_11 + x_11_12 + x_11_13 + x_11_14 + x_11_15 + x_11_16
   = 0
 c_2_12: - 2 y_12 + x_0_12 + x_1_12 + x_5_12 + x_7_12 + x_8_12 + x_9_12
   + x_11_12 + x_12_15 + x_12_16 + x_12_17 + x_12_18 = 0
 c_2_13: - 2 y_13 + x_0_13 + x_1_13 + x_5_13 + x_8_13 + x_10_13 + x_11_13
   + x_13_14 + x_13_15 + x_13_16 + x_13_17 + x_13_18 + x_13_19 = 0
 c_2_14: - 2 y_14 + x_0_14 + x_1_14 + x_2_14 + x_3_14 + x_4_14 + x_5_14
   + x_6_14 + x_7_14 + x_8_14 + x_9_14 + x_10_14 + x_11_14 + x_13_14
   + x_14_16 + x_14_18 + x_14_19 = 0
 c_2_15: - 2 y_15 + x_0_15 + x_1_15 + x_2_15 + x_3_15 + x_4_15 + x_6_15
   + x_7_15 + x_8_15 + x_9_15 + x_11_15 + x_12_15 + x_13_15 + x_15_16
   + x_15_17 + x_15_19 = 0
 c_2_16: - 2 y_16 + x_1_16 + x_2_16 + x_3_16 + x_4_16 + x_5_16 + x_9_16
   + x_10_16 + x_11_16 + x_12_16 + x_13_16 + x_14_16 + x_15_16 + x_16_17
   + x_16_18 + x_16_19 = 0
 c_2_17: - 2 y_17 + x_0_17 + x_1_17 + x_2_17 + x_3_17 + x_5_17 + x_6_17
   + x_7_17 + x_8_17 + x_9_17 + x_12_17 + x_13_17 + x_15_17 + x_16_17
   + x_17_18 + x_17_19 = 0
 c_2_18: - 2 y_18 + x_0_18 + x_1_18 + x_2_18 + x_5_18 + x_6_18 + x_8_18
   + x_9_18 + x_12_18 + x_13_18 + x_14_18 + x_16_18 + x_17_18 + x_18_19
   = 0
 c_2_19: - 2 y_19 + x_0_19 + x_1_19 + x_3_19 + x_9_19 + x_10_19 + x_13_19
   + x_14_19 + x_15_19 + x_16_19 + x_17_19 + x_18_19 = 0
Bounds
 Constant = 1
Binaries
 y_0 y_1 y_2 y_3 y_4 y_5 y_6 y_7 y_8 y_9 y_10 y_11 y_12 y_13 y_14 y_15 y_16
 y_17 y_18 y_19 x_0_1 x_0_2 x_0_3 x_0_4 x_0_5 x_0_6 x_0_7 x_0_8 x_0_10
 x_0_12 x_0_13 x_0_14 x_0_15 x_0_17 x_0_18 x_0_19 x_1_2 x_1_4 x_1_5 x_1_8
 x_1_9 x_1_10 x_1_11 x_1_12 x_1_13 x_1_14 x_1_15 x_1_16 x_1_17 x_1_18
 x_1_19 x_2_3 x_2_4 x_2_5 x_2_6 x_2_9 x_2_11 x_2_14 x_2_15 x_2_16 x_2_17
 x_2_18 x_3_7 x_3_8 x_3_10 x_3_11 x_3_14 x_3_15 x_3_16 x_3_17 x_3_19 x_4_5
 x_4_6 x_4_7 x_4_8 x_4_9 x_4_10 x_4_14 x_4_15 x_4_16 x_5_7 x_5_8 x_5_9
 x_5_11 x_5_12 x_5_13 x_5_14 x_5_16 x_5_17 x_5_18 x_6_7 x_6_8 x_6_10 x_6_14
 x_6_15 x_6_17 x_6_18 x_7_8 x_7_9 x_7_10 x_7_11 x_7_12 x_7_14 x_7_15 x_7_17
 x_8_9 x_8_11 x_8_12 x_8_13 x_8_14 x_8_15 x_8_17 x_8_18 x_9_11 x_9_12
 x_9_14 x_9_15 x_9_16 x_9_17 x_9_18 x_9_19 x_10_11 x_10_13 x_10_14 x_10_16
 x_10_19 x_11_12 x_11_13 x_11_14 x_11_15 x_11_16 x_12_15 x_12_16 x_12_17
 x_12_18 x_13_14 x_13_15 x_13_16 x_13_17 x_13_18 x_13_19 x_14_16 x_14_18
 x_14_19 x_15_16 x_15_17 x_15_19 x_16_17 x_16_18 x_16_19 x_17_18 x_17_19
 x_18_19
End
